c 
p cnf 10 40
6 2 -9 0
3 -4 5 0
4 7 -6 0
9 10 -2 0
2 8 7 0
9 -7 6 0
-1 4 -3 0
-4 9 2 0
2 10 -4 0
-4 -2 -1 0
2 -5 -1 0
-10 -2 -9 0
-5 7 -1 0
3 7 -6 0
8 -4 6 0
6 -9 10 0
8 -5 -3 0
-3 -9 5 0
10 6 -5 0
2 -7 -10 0
-3 -8 -4 0
4 -8 -5 0
-4 -2 8 0
3 6 -10 0
4 6 5 0
-2 -6 -5 0
-4 5 -8 0
9 -8 -1 0
-8 -6 -5 0
-6 9 -8 0
5 -9 -3 0
-7 -6 -9 0
2 -7 -4 0
-5 -3 -7 0
8 -6 -10 0
-7 -4 5 0
-8 5 7 0
1 -7 -6 0
8 -3 2 0
5 6 -2 0
